Maximize

5 x_0 + 4 x_1 + 3 x_2 + 4 x_3 + 5 x_4 + 2 x_5 + 3 x_6


Subject To

a0: x_0 + x_1 >= 1
a1: x_2 + x_3 >= 1
a2: x_4 >= 1
a3: x_5 + x_6 >= 1
b0: x_0 + x_1 - x_0 - x_1 <= 0
b1: x_2 + x_3 - x_0 - x_1 <= 0
b2: x_4 - x_0 - x_1 <= 0
b3: x_5 + x_6 - x_0 - x_1 <= 0
c0: 20 x_0 + 25 x_1 + 22 x_2 + 20 x_3 + 18 x_4 + 18 x_5 + 26 x_6 - 20 x_0 - 20 x_1 - 20 x_2 - 20 x_3 - 20 x_4 - 20 x_5 - 20 x_6 >= 0
d0: 90 x_0 + 110 x_1 + 80 x_2 + 70 x_3 + 120 x_4 + 100 x_5 + 90 x_6 <= 500




Binary

x_0 x_1 x_2 x_3 x_4 x_5 x_6

 


End
